!   File created by the GAMESS Input Deck Generator Plugin for Avogadro
 $BASIS GBASIS=N31 NGAUSS=6 NDFUNC=1 NPFUNC=1 DIFFSP=.TRUE. $END
 $CONTRL SCFTYP=UHF RUNTYP=OPTIMIZE MULT=2 $END
 $STATPT OPTTOL=0.0001 NSTEP=20 $END

 $DATA 
Title
C1
C     6.0    -0.13910     0.00530    -0.00010
Cl    17.0     1.62660    -0.06170     0.00170
H     1.0    -0.51560    -0.52580    -0.87720
H     1.0    -0.51530    -0.46750     0.90970
H     1.0    -0.45670     1.04970    -0.03420
 $END
